============================[ Problem Statistics ]=============================|                                                                             ||  Number of variables:          4242                                         ||  Number of clauses:           10434                                         ||  Parse time:                   0.82 s                                       ||                                                                             |============================[ Search Statistics ]==============================| Conflicts |          ORIGINAL         |          LEARNT          | Progress ||           |    Vars  Clauses Literals |    Limit  Clauses Lit/Cl |          |===============================================================================|       100 |    1591     6639  1310050 |     2434      100     53 | 62.501 % ||       250 |    1591     6639  1310050 |     2677      250     75 | 62.495 % |===============================================================================restarts              : 4conflicts             : 442            (359 /sec)decisions             : 802            (0.00 % random) (651 /sec)propagations          : 13730          (11144 /sec)conflict literals     : 37335          (94.47 % deleted)CPU time              : 1.232 sSATISFIABLE